65 65
10 31
55 14
60 24
63 32
7 6
48 31
44 12
51 10
24 3
64 7
52 22
20 23
61 5
13 28
21 33
50 10
5 25
38 3
30 27
14 13
25 16
43 19
29 20
28 1
32 14
36 2
59 17
42 29
4 25
65 11
9 15
57 32
49 24
58 28
8 7
34 26
27 9
17 13
39 30
46 4
37 15
18 22
62 6
11 12
22 26
16 4
1 21
15 18
40 17
35 5
23 19
12 27
3 29
31 18
53 20
41 8
56 2
26 30
19 16
33 21
47 1
2 11
54 9
6 8
45 23
